30
1 0 3
2 1 7
3 2 2
4 0 12
5 1 8
5 3 12
5 4 13
6 1 1
6 2 11
6 4 10
7 0 6
7 2 2
7 3 11
7 4 12
8 0 9
8 1 5
9 1 10
9 6 11
9 7 12
9 8 10
10 0 5
10 2 7
10 3 5
10 4 2
10 5 6
10 7 8
10 8 10
10 9 1
11 1 3
11 2 12
11 4 2
11 5 3
11 6 3
11 8 8
11 9 7
12 1 13
12 2 7
12 3 6
12 4 7
12 7 11
12 8 11
12 10 3
12 11 5
13 3 13
13 5 11
13 6 1
13 8 11
13 9 7
14 1 3
14 3 8
14 5 11
14 6 9
14 11 6
15 1 11
15 3 1
15 5 12
15 6 3
15 7 7
15 8 12
15 10 13
15 11 7
15 13 4
16 0 11
16 3 9
16 8 9
16 10 8
16 11 8
16 12 2
16 13 6
16 14 3
17 1 11
17 2 10
17 4 4
17 6 4
17 7 11
17 8 13
17 9 6
17 10 2
17 11 12
17 12 5
17 14 12
17 16 8
18 4 1
18 7 4
18 9 4
18 12 5
18 13 3
18 14 7
18 16 13
18 17 4
19 0 5
19 1 13
19 2 7
19 4 1
19 8 1
19 11 1
19 15 4
19 18 9
20 0 10
20 1 2
20 2 12
20 4 1
20 6 5
20 9 1
20 13 11
20 14 2
20 19 11
21 0 1
21 1 11
21 2 10
21 3 11
21 4 7
21 6 9
21 7 7
21 8 11
21 9 4
21 10 10
21 11 11
21 12 3
21 14 12
21 16 4
21 17 2
21 18 2
21 19 4
21 20 6
22 0 6
22 1 12
22 2 9
22 8 6
22 13 3
22 14 2
22 16 1
22 17 13
22 18 2
22 19 11
22 20 1
22 21 11
23 1 3
23 2 10
23 4 2
23 6 10
23 9 12
23 10 9
23 11 12
23 13 8
23 16 9
23 18 6
23 20 1
24 0 8
24 1 4
24 3 9
24 4 7
24 8 4
24 10 11
24 11 11
24 12 10
24 14 1
24 20 2
24 21 13
24 22 9
25 1 13
25 2 10
25 4 5
25 6 12
25 10 2
25 14 9
25 15 1
25 17 5
25 21 3
25 22 7
25 24 13
26 0 5
26 1 4
26 5 4
26 7 12
26 9 7
26 11 8
26 12 5
26 13 4
26 16 9
26 18 8
26 20 6
26 21 12
26 22 12
26 24 10
27 8 7
27 10 9
27 11 5
27 12 10
27 14 6
27 21 5
27 22 6
27 23 8
27 24 9
27 25 3
27 26 3
28 0 2
28 1 8
28 4 13
28 5 13
28 7 10
28 8 9
28 10 7
28 14 11
28 20 1
28 21 13
28 23 7
28 24 5
28 25 12
28 26 3
28 27 2
29 2 4
29 4 7
29 5 4
29 6 12
29 7 12
29 9 2
29 11 11
29 12 5
29 13 3
29 14 10
29 15 8
29 16 9
29 17 8
29 19 13
29 21 5
29 22 1
29 24 1
29 26 5
29 27 2
29 28 8
